p cnf 269 2047
102 178 0
106 129 133 181 0
77 124 0
63 128 0
61 147 194 196 0
84 89 92 0
56 79 94 0
74 119 144 0
68 69 72 115 142 0
107 137 220 222 0
134 152 226 0
121 153 157 228 0
127 143 150 250 0
113 155 238 0
30 161 0
23 96 163 0
100 139 145 148 0
64 110 164 0
80 117 132 0
103 120 0
62 70 114 146 0
58 59 87 90 0
55 57 0
53 54 0
50 51 67 140 0
42 45 48 0
40 101 0
36 37 38 0
122 126 154 0
35 156 159 0
32 34 98 112 0
27 29 81 85 0
22 24 26 97 162 0
15 16 18 19 20 73 0
14 49 66 138 0
44 47 65 109 0
11 12 116 135 136 0
10 104 118 131 165 0
166 167 169 171 0
125 172 174 176 179 0
71 130 180 182 183 0
184 185 186 188 0
60 190 192 193 195 197 0
198 199 200 202 265 0
52 141 204 205 0
46 93 206 209 210 211 0
41 213 214 215 216 0
207 217 218 219 0
123 221 223 224 225 0
76 151 227 0
99 158 160 229 0
33 82 230 231 233 0
234 235 236 239 0
-94 -220 0
-94 -228 0
-220 -228 0
-240 -250 0
-145 -250 0
-145 -240 0
-67 -75 0
-48 -75 0
-75 -108 0
-48 -67 0
-67 -108 0
-48 -108 0
-85 -112 0
-26 -112 0
-20 -112 0
-26 -85 0
-20 -85 0
-20 -26 0
-10 -12 0
-94 -250 0
-75 -112 0
-12 -75 0
-12 -112 0
-67 -85 0
-10 -67 0
-10 -85 0
-220 -240 0
-48 -220 0
-26 -220 0
-48 -240 0
-26 -240 0
-26 -48 0
-145 -228 0
-108 -228 0
-20 -228 0
-108 -145 0
-20 -145 0
-20 -108 0
-115 -208 0
-115 -242 0
-115 -222 0
-115 -226 0
-115 -157 0
-208 -242 0
-208 -222 0
-208 -226 0
-157 -208 0
-222 -242 0
-226 -242 0
-157 -242 0
-222 -226 0
-157 -222 0
-157 -226 0
-30 -243 0
-96 -243 0
-243 -244 0
-17 -243 0
-148 -243 0
-30 -96 0
-30 -244 0
-17 -30 0
-30 -148 0
-96 -244 0
-17 -96 0
-96 -148 0
-17 -244 0
-148 -244 0
-17 -148 0
-64 -246 0
-64 -80 0
-64 -103 0
-64 -170 0
-64 -177 0
-64 -70 0
-59 -64 0
-80 -246 0
-103 -246 0
-170 -246 0
-177 -246 0
-70 -246 0
-59 -246 0
-80 -103 0
-80 -170 0
-80 -177 0
-70 -80 0
-59 -80 0
-103 -170 0
-103 -177 0
-70 -103 0
-59 -103 0
-170 -177 0
-70 -170 0
-59 -170 0
-70 -177 0
-59 -177 0
-59 -70 0
-57 -187 0
-54 -187 0
-187 -203 0
-140 -187 0
-45 -187 0
-40 -187 0
-187 -248 0
-54 -57 0
-57 -203 0
-57 -140 0
-45 -57 0
-40 -57 0
-57 -248 0
-54 -203 0
-54 -140 0
-45 -54 0
-40 -54 0
-54 -248 0
-140 -203 0
-45 -203 0
-40 -203 0
-203 -248 0
-45 -140 0
-40 -140 0
-140 -248 0
-40 -45 0
-45 -248 0
-40 -248 0
-38 -122 0
-35 -38 0
-38 -98 0
-38 -81 0
-24 -38 0
-38 -237 0
-19 -38 0
-35 -122 0
-98 -122 0
-81 -122 0
-24 -122 0
-122 -237 0
-19 -122 0
-35 -98 0
-35 -81 0
-24 -35 0
-35 -237 0
-19 -35 0
-81 -98 0
-24 -98 0
-98 -237 0
-19 -98 0
-24 -81 0
-81 -237 0
-19 -81 0
-24 -237 0
-19 -24 0
-19 -237 0
-47 -66 0
-66 -111 0
-66 -135 0
-66 -131 0
-66 -166 0
-66 -172 0
-66 -180 0
-47 -111 0
-47 -135 0
-47 -131 0
-47 -166 0
-47 -172 0
-47 -180 0
-111 -135 0
-111 -131 0
-111 -166 0
-111 -172 0
-111 -180 0
-131 -135 0
-135 -166 0
-135 -172 0
-135 -180 0
-131 -166 0
-131 -172 0
-131 -180 0
-166 -172 0
-166 -180 0
-172 -180 0
-184 -249 0
-190 -249 0
-95 -249 0
-198 -249 0
-204 -249 0
-93 -249 0
-213 -249 0
-184 -190 0
-95 -184 0
-184 -198 0
-184 -204 0
-93 -184 0
-184 -213 0
-95 -190 0
-190 -198 0
-190 -204 0
-93 -190 0
-190 -213 0
-95 -198 0
-95 -204 0
-93 -95 0
-95 -213 0
-198 -204 0
-93 -198 0
-198 -213 0
-93 -204 0
-204 -213 0
-93 -213 0
-105 -217 0
-217 -221 0
-76 -217 0
-217 -229 0
-217 -230 0
-217 -251 0
-217 -234 0
-105 -221 0
-76 -105 0
-105 -229 0
-105 -230 0
-105 -251 0
-105 -234 0
-76 -221 0
-221 -229 0
-221 -230 0
-221 -251 0
-221 -234 0
-76 -229 0
-76 -230 0
-76 -251 0
-76 -234 0
-229 -230 0
-229 -251 0
-229 -234 0
-230 -251 0
-230 -234 0
-234 -251 0
-64 -187 0
-38 -64 0
-64 -66 0
-64 -249 0
-64 -217 0
-38 -187 0
-66 -187 0
-187 -249 0
-187 -217 0
-38 -66 0
-38 -249 0
-38 -217 0
-66 -249 0
-66 -217 0
-217 -249 0
-57 -246 0
-122 -246 0
-47 -246 0
-184 -246 0
-105 -246 0
-57 -122 0
-47 -57 0
-57 -184 0
-57 -105 0
-47 -122 0
-122 -184 0
-105 -122 0
-47 -184 0
-47 -105 0
-105 -184 0
-115 -243 0
-80 -115 0
-54 -115 0
-35 -115 0
-111 -115 0
-115 -190 0
-115 -221 0
-80 -243 0
-54 -243 0
-35 -243 0
-111 -243 0
-190 -243 0
-221 -243 0
-54 -80 0
-35 -80 0
-80 -111 0
-80 -190 0
-80 -221 0
-35 -54 0
-54 -111 0
-54 -190 0
-54 -221 0
-35 -111 0
-35 -190 0
-35 -221 0
-111 -190 0
-111 -221 0
-190 -221 0
-30 -208 0
-103 -208 0
-203 -208 0
-98 -208 0
-135 -208 0
-95 -208 0
-76 -208 0
-30 -103 0
-30 -203 0
-30 -98 0
-30 -135 0
-30 -95 0
-30 -76 0
-103 -203 0
-98 -103 0
-103 -135 0
-95 -103 0
-76 -103 0
-98 -203 0
-135 -203 0
-95 -203 0
-76 -203 0
-98 -135 0
-95 -98 0
-76 -98 0
-95 -135 0
-76 -135 0
-76 -95 0
-96 -242 0
-170 -242 0
-140 -242 0
-81 -242 0
-131 -242 0
-198 -242 0
-229 -242 0
-96 -170 0
-96 -140 0
-81 -96 0
-96 -131 0
-96 -198 0
-96 -229 0
-140 -170 0
-81 -170 0
-131 -170 0
-170 -198 0
-170 -229 0
-81 -140 0
-131 -140 0
-140 -198 0
-140 -229 0
-81 -131 0
-81 -198 0
-81 -229 0
-131 -198 0
-131 -229 0
-198 -229 0
-222 -244 0
-177 -222 0
-45 -222 0
-24 -222 0
-166 -222 0
-204 -222 0
-222 -230 0
-177 -244 0
-45 -244 0
-24 -244 0
-166 -244 0
-204 -244 0
-230 -244 0
-45 -177 0
-24 -177 0
-166 -177 0
-177 -204 0
-177 -230 0
-24 -45 0
-45 -166 0
-45 -204 0
-45 -230 0
-24 -166 0
-24 -204 0
-24 -230 0
-166 -204 0
-166 -230 0
-204 -230 0
-17 -226 0
-70 -226 0
-40 -226 0
-226 -237 0
-172 -226 0
-93 -226 0
-226 -251 0
-17 -70 0
-17 -40 0
-17 -237 0
-17 -172 0
-17 -93 0
-17 -251 0
-40 -70 0
-70 -237 0
-70 -172 0
-70 -93 0
-70 -251 0
-40 -237 0
-40 -172 0
-40 -93 0
-40 -251 0
-172 -237 0
-93 -237 0
-237 -251 0
-93 -172 0
-172 -251 0
-93 -251 0
-148 -157 0
-59 -157 0
-157 -248 0
-19 -157 0
-157 -180 0
-157 -213 0
-157 -234 0
-59 -148 0
-148 -248 0
-19 -148 0
-148 -180 0
-148 -213 0
-148 -234 0
-59 -248 0
-19 -59 0
-59 -180 0
-59 -213 0
-59 -234 0
-19 -248 0
-180 -248 0
-213 -248 0
-234 -248 0
-19 -180 0
-19 -213 0
-19 -234 0
-180 -213 0
-180 -234 0
-213 -234 0
-56 -119 0
-56 -72 0
-56 -252 0
-43 -56 0
-72 -119 0
-119 -252 0
-43 -119 0
-72 -252 0
-43 -72 0
-43 -252 0
-127 -155 0
-127 -232 0
-127 -161 0
-23 -127 0
-155 -232 0
-155 -161 0
-23 -155 0
-161 -232 0
-23 -232 0
-23 -161 0
-53 -253 0
-51 -53 0
-51 -253 0
-44 -138 0
-138 -254 0
-11 -138 0
-118 -138 0
-138 -174 0
-44 -254 0
-11 -44 0
-44 -118 0
-44 -174 0
-11 -254 0
-118 -254 0
-174 -254 0
-11 -118 0
-11 -174 0
-118 -174 0
-91 -185 0
-91 -192 0
-91 -255 0
-91 -199 0
-91 -206 0
-185 -192 0
-185 -255 0
-185 -199 0
-185 -206 0
-192 -255 0
-192 -199 0
-192 -206 0
-199 -255 0
-206 -255 0
-199 -206 0
-207 -241 0
-207 -223 0
-207 -227 0
-158 -207 0
-31 -207 0
-223 -241 0
-227 -241 0
-158 -241 0
-31 -241 0
-223 -227 0
-158 -223 0
-31 -223 0
-158 -227 0
-31 -227 0
-31 -158 0
-56 -127 0
-56 -138 0
-56 -91 0
-56 -207 0
-127 -138 0
-91 -127 0
-127 -207 0
-91 -138 0
-138 -207 0
-91 -207 0
-119 -155 0
-44 -119 0
-119 -185 0
-119 -241 0
-44 -155 0
-155 -185 0
-155 -241 0
-44 -185 0
-44 -241 0
-185 -241 0
-72 -232 0
-53 -72 0
-72 -254 0
-72 -192 0
-72 -223 0
-53 -232 0
-232 -254 0
-192 -232 0
-223 -232 0
-53 -254 0
-53 -192 0
-53 -223 0
-192 -254 0
-223 -254 0
-192 -223 0
-161 -252 0
-252 -253 0
-11 -252 0
-252 -255 0
-227 -252 0
-161 -253 0
-11 -161 0
-161 -255 0
-161 -227 0
-11 -253 0
-253 -255 0
-227 -253 0
-11 -255 0
-11 -227 0
-227 -255 0
-23 -43 0
-43 -51 0
-43 -118 0
-43 -199 0
-43 -158 0
-23 -51 0
-23 -118 0
-23 -199 0
-23 -158 0
-51 -118 0
-51 -199 0
-51 -158 0
-118 -199 0
-118 -158 0
-158 -199 0
-174 -206 0
-31 -174 0
-31 -206 0
-102 -129 0
-102 -168 0
-102 -128 0
-102 -147 0
-92 -102 0
-102 -256 0
-129 -168 0
-128 -129 0
-129 -147 0
-92 -129 0
-129 -256 0
-128 -168 0
-147 -168 0
-92 -168 0
-168 -256 0
-128 -147 0
-92 -128 0
-128 -256 0
-92 -147 0
-147 -256 0
-92 -256 0
-74 -79 0
-68 -79 0
-79 -257 0
-79 -107 0
-79 -152 0
-79 -153 0
-68 -74 0
-74 -257 0
-74 -107 0
-74 -152 0
-74 -153 0
-68 -257 0
-68 -107 0
-68 -152 0
-68 -153 0
-107 -257 0
-152 -257 0
-153 -257 0
-107 -152 0
-107 -153 0
-152 -153 0
-113 -143 0
-86 -143 0
-143 -163 0
-21 -143 0
-143 -258 0
-100 -143 0
-86 -113 0
-113 -163 0
-21 -113 0
-113 -258 0
-100 -113 0
-86 -163 0
-21 -86 0
-86 -258 0
-86 -100 0
-21 -163 0
-163 -258 0
-100 -163 0
-21 -258 0
-21 -100 0
-100 -258 0
-13 -164 0
-78 -164 0
-62 -164 0
-58 -164 0
-13 -78 0
-13 -62 0
-13 -58 0
-62 -78 0
-58 -78 0
-58 -62 0
-37 -154 0
-37 -162 0
-37 -259 0
-18 -37 0
-154 -162 0
-154 -259 0
-18 -154 0
-162 -259 0
-18 -162 0
-18 -259 0
-193 -200 0
-193 -205 0
-193 -209 0
-193 -214 0
-200 -205 0
-200 -209 0
-200 -214 0
-205 -209 0
-205 -214 0
-209 -214 0
-160 -224 0
-33 -224 0
-28 -224 0
-224 -235 0
-33 -160 0
-28 -160 0
-160 -235 0
-28 -33 0
-33 -235 0
-28 -235 0
-79 -102 0
-102 -143 0
-102 -164 0
-37 -102 0
-79 -143 0
-79 -164 0
-37 -79 0
-143 -164 0
-37 -143 0
-37 -164 0
-74 -129 0
-113 -129 0
-13 -129 0
-129 -154 0
-74 -113 0
-13 -74 0
-74 -154 0
-13 -113 0
-113 -154 0
-13 -154 0
-68 -168 0
-86 -168 0
-168 -193 0
-168 -224 0
-68 -86 0
-68 -193 0
-68 -224 0
-86 -193 0
-86 -224 0
-193 -224 0
-128 -257 0
-128 -163 0
-128 -200 0
-128 -160 0
-163 -257 0
-200 -257 0
-160 -257 0
-163 -200 0
-160 -163 0
-160 -200 0
-107 -147 0
-21 -147 0
-78 -147 0
-147 -162 0
-147 -205 0
-33 -147 0
-21 -107 0
-78 -107 0
-107 -162 0
-107 -205 0
-33 -107 0
-21 -78 0
-21 -162 0
-21 -205 0
-21 -33 0
-78 -162 0
-78 -205 0
-33 -78 0
-162 -205 0
-33 -162 0
-33 -205 0
-92 -152 0
-92 -258 0
-62 -92 0
-92 -259 0
-92 -209 0
-28 -92 0
-152 -258 0
-62 -152 0
-152 -259 0
-152 -209 0
-28 -152 0
-62 -258 0
-258 -259 0
-209 -258 0
-28 -258 0
-62 -259 0
-62 -209 0
-28 -62 0
-209 -259 0
-28 -259 0
-28 -209 0
-153 -256 0
-100 -256 0
-58 -256 0
-18 -256 0
-214 -256 0
-235 -256 0
-100 -153 0
-58 -153 0
-18 -153 0
-153 -214 0
-153 -235 0
-58 -100 0
-18 -100 0
-100 -214 0
-100 -235 0
-18 -58 0
-58 -214 0
-58 -235 0
-18 -214 0
-18 -235 0
-214 -235 0
-61 -201 0
-110 -173 0
-50 -191 0
-130 -167 0
-110 -191 0
-50 -173 0
-61 -167 0
-130 -201 0
-178 -181 0
-178 -194 0
-89 -178 0
-178 -189 0
-181 -194 0
-89 -181 0
-181 -189 0
-89 -194 0
-189 -194 0
-89 -189 0
-150 -238 0
-150 -260 0
-150 -261 0
-139 -150 0
-238 -260 0
-238 -261 0
-139 -238 0
-260 -261 0
-139 -260 0
-139 -261 0
-117 -175 0
-117 -262 0
-117 -146 0
-90 -117 0
-175 -262 0
-146 -175 0
-90 -175 0
-146 -262 0
-90 -262 0
-90 -146 0
-29 -156 0
-97 -156 0
-156 -245 0
-16 -156 0
-29 -97 0
-29 -245 0
-16 -29 0
-97 -245 0
-16 -97 0
-16 -245 0
-49 -65 0
-49 -247 0
-49 -104 0
-49 -169 0
-49 -176 0
-49 -71 0
-65 -247 0
-65 -104 0
-65 -169 0
-65 -176 0
-65 -71 0
-104 -247 0
-169 -247 0
-176 -247 0
-71 -247 0
-104 -169 0
-104 -176 0
-71 -104 0
-169 -176 0
-71 -169 0
-71 -176 0
-186 -263 0
-60 -263 0
-202 -263 0
-141 -263 0
-46 -263 0
-41 -263 0
-60 -186 0
-186 -202 0
-141 -186 0
-46 -186 0
-41 -186 0
-60 -202 0
-60 -141 0
-46 -60 0
-41 -60 0
-141 -202 0
-46 -202 0
-41 -202 0
-46 -141 0
-41 -141 0
-41 -46 0
-39 -218 0
-123 -218 0
-99 -218 0
-82 -218 0
-25 -218 0
-218 -236 0
-39 -123 0
-39 -99 0
-39 -82 0
-25 -39 0
-39 -236 0
-99 -123 0
-82 -123 0
-25 -123 0
-123 -236 0
-82 -99 0
-25 -99 0
-99 -236 0
-25 -82 0
-82 -236 0
-25 -236 0
-150 -178 0
-49 -178 0
-178 -263 0
-178 -218 0
-49 -150 0
-150 -263 0
-150 -218 0
-49 -263 0
-49 -218 0
-218 -263 0
-181 -238 0
-65 -181 0
-181 -186 0
-39 -181 0
-65 -238 0
-186 -238 0
-39 -238 0
-65 -186 0
-39 -65 0
-39 -186 0
-117 -156 0
-117 -247 0
-60 -117 0
-117 -123 0
-156 -247 0
-60 -156 0
-123 -156 0
-60 -247 0
-123 -247 0
-60 -123 0
-29 -175 0
-104 -175 0
-175 -202 0
-99 -175 0
-29 -104 0
-29 -202 0
-29 -99 0
-104 -202 0
-99 -104 0
-99 -202 0
-194 -260 0
-194 -262 0
-97 -194 0
-169 -194 0
-141 -194 0
-82 -194 0
-260 -262 0
-97 -260 0
-169 -260 0
-141 -260 0
-82 -260 0
-97 -262 0
-169 -262 0
-141 -262 0
-82 -262 0
-97 -169 0
-97 -141 0
-82 -97 0
-141 -169 0
-82 -169 0
-82 -141 0
-89 -261 0
-89 -146 0
-89 -245 0
-89 -176 0
-46 -89 0
-25 -89 0
-146 -261 0
-245 -261 0
-176 -261 0
-46 -261 0
-25 -261 0
-146 -245 0
-146 -176 0
-46 -146 0
-25 -146 0
-176 -245 0
-46 -245 0
-25 -245 0
-46 -176 0
-25 -176 0
-25 -46 0
-139 -189 0
-90 -189 0
-16 -189 0
-71 -189 0
-41 -189 0
-189 -236 0
-90 -139 0
-16 -139 0
-71 -139 0
-41 -139 0
-139 -236 0
-16 -90 0
-71 -90 0
-41 -90 0
-90 -236 0
-16 -71 0
-16 -41 0
-16 -236 0
-41 -71 0
-71 -236 0
-41 -236 0
-124 -264 0
-196 -264 0
-84 -264 0
-264 -266 0
-124 -196 0
-84 -124 0
-124 -266 0
-84 -196 0
-196 -266 0
-84 -266 0
-69 -212 0
-69 -137 0
-69 -134 0
-69 -121 0
-137 -212 0
-134 -212 0
-121 -212 0
-134 -137 0
-121 -137 0
-121 -134 0
-55 -267 0
-42 -267 0
-101 -267 0
-267 -268 0
-42 -55 0
-55 -101 0
-55 -268 0
-42 -101 0
-42 -268 0
-101 -268 0
-36 -126 0
-22 -36 0
-36 -269 0
-36 -73 0
-22 -126 0
-126 -269 0
-73 -126 0
-22 -269 0
-22 -73 0
-73 -269 0
-14 -109 0
-9 -14 0
-14 -136 0
-14 -171 0
-14 -179 0
-14 -182 0
-9 -109 0
-109 -136 0
-109 -171 0
-109 -179 0
-109 -182 0
-9 -136 0
-9 -171 0
-9 -179 0
-9 -182 0
-136 -171 0
-136 -179 0
-136 -182 0
-171 -179 0
-171 -182 0
-179 -182 0
-8 -188 0
-8 -195 0
-8 -88 0
-8 -52 0
-8 -210 0
-8 -215 0
-188 -195 0
-88 -188 0
-52 -188 0
-188 -210 0
-188 -215 0
-88 -195 0
-52 -195 0
-195 -210 0
-195 -215 0
-52 -88 0
-88 -210 0
-88 -215 0
-52 -210 0
-52 -215 0
-210 -215 0
-7 -219 0
-219 -225 0
-151 -219 0
-219 -233 0
-149 -219 0
-219 -239 0
-7 -225 0
-7 -151 0
-7 -233 0
-7 -149 0
-7 -239 0
-151 -225 0
-225 -233 0
-149 -225 0
-225 -239 0
-151 -233 0
-149 -151 0
-151 -239 0
-149 -233 0
-233 -239 0
-149 -239 0
-36 -267 0
-14 -267 0
-8 -267 0
-219 -267 0
-14 -36 0
-8 -36 0
-36 -219 0
-8 -14 0
-14 -219 0
-8 -219 0
-55 -126 0
-55 -109 0
-55 -188 0
-7 -55 0
-109 -126 0
-126 -188 0
-7 -126 0
-109 -188 0
-7 -109 0
-7 -188 0
-69 -264 0
-9 -264 0
-195 -264 0
-225 -264 0
-9 -69 0
-69 -195 0
-69 -225 0
-9 -195 0
-9 -225 0
-195 -225 0
-124 -212 0
-124 -136 0
-88 -124 0
-124 -151 0
-136 -212 0
-88 -212 0
-151 -212 0
-88 -136 0
-136 -151 0
-88 -151 0
-137 -196 0
-42 -196 0
-22 -196 0
-171 -196 0
-52 -196 0
-196 -233 0
-42 -137 0
-22 -137 0
-137 -171 0
-52 -137 0
-137 -233 0
-22 -42 0
-42 -171 0
-42 -52 0
-42 -233 0
-22 -171 0
-22 -52 0
-22 -233 0
-52 -171 0
-171 -233 0
-52 -233 0
-84 -134 0
-84 -101 0
-84 -269 0
-84 -179 0
-84 -210 0
-84 -149 0
-101 -134 0
-134 -269 0
-134 -179 0
-134 -210 0
-134 -149 0
-101 -269 0
-101 -179 0
-101 -210 0
-101 -149 0
-179 -269 0
-210 -269 0
-149 -269 0
-179 -210 0
-149 -179 0
-149 -210 0
-121 -266 0
-266 -268 0
-73 -266 0
-182 -266 0
-215 -266 0
-239 -266 0
-121 -268 0
-73 -121 0
-121 -182 0
-121 -215 0
-121 -239 0
-73 -268 0
-182 -268 0
-215 -268 0
-239 -268 0
-73 -182 0
-73 -215 0
-73 -239 0
-182 -215 0
-182 -239 0
-215 -239 0
-6 -106 0
-77 -106 0
-63 -106 0
-6 -77 0
-6 -63 0
-63 -77 0
-142 -144 0
-5 -144 0
-4 -144 0
-5 -142 0
-4 -142 0
-4 -5 0
-120 -132 0
-3 -132 0
-114 -132 0
-87 -132 0
-3 -120 0
-114 -120 0
-87 -120 0
-3 -114 0
-3 -87 0
-87 -114 0
-32 -159 0
-27 -159 0
-2 -159 0
-15 -159 0
-27 -32 0
-2 -32 0
-15 -32 0
-2 -27 0
-15 -27 0
-2 -15 0
-1 -116 0
-1 -165 0
-1 -125 0
-1 -183 0
-116 -165 0
-116 -125 0
-116 -183 0
-125 -165 0
-165 -183 0
-125 -183 0
-83 -197 0
-197 -265 0
-197 -211 0
-197 -216 0
-83 -265 0
-83 -211 0
-83 -216 0
-211 -265 0
-216 -265 0
-211 -216 0
-106 -144 0
-6 -142 0
-6 -132 0
-6 -159 0
-1 -6 0
-6 -197 0
-132 -142 0
-142 -159 0
-1 -142 0
-142 -197 0
-132 -159 0
-1 -132 0
-132 -197 0
-1 -159 0
-159 -197 0
-1 -197 0
-5 -77 0
-77 -120 0
-32 -77 0
-77 -116 0
-77 -83 0
-5 -120 0
-5 -32 0
-5 -116 0
-5 -83 0
-32 -120 0
-116 -120 0
-83 -120 0
-32 -116 0
-32 -83 0
-83 -116 0
-4 -63 0
-3 -63 0
-27 -63 0
-63 -165 0
-63 -265 0
-3 -4 0
-4 -27 0
-4 -165 0
-4 -265 0
-3 -27 0
-3 -165 0
-3 -265 0
-27 -165 0
-27 -265 0
-165 -265 0
-2 -114 0
-114 -125 0
-114 -211 0
-2 -125 0
-2 -211 0
-125 -211 0
-15 -87 0
-87 -183 0
-87 -216 0
-15 -183 0
-15 -216 0
-183 -216 0
-94 -250 0
-56 -119 0
-56 -127 0
-56 -155 0
-119 -127 0
-119 -155 0
-127 -155 0
-102 -129 0
-79 -102 0
-74 -102 0
-102 -143 0
-102 -113 0
-79 -129 0
-74 -129 0
-129 -143 0
-113 -129 0
-74 -79 0
-79 -143 0
-79 -113 0
-74 -143 0
-74 -113 0
-113 -143 0
-178 -181 0
-150 -178 0
-178 -238 0
-150 -181 0
-181 -238 0
-150 -238 0
-106 -144 0
-115 -208 0
-115 -242 0
-115 -243 0
-30 -115 0
-96 -115 0
-208 -242 0
-208 -243 0
-30 -208 0
-96 -208 0
-242 -243 0
-30 -242 0
-96 -242 0
-30 -243 0
-96 -243 0
-30 -96 0
-72 -252 0
-43 -72 0
-72 -232 0
-72 -161 0
-23 -72 0
-43 -252 0
-232 -252 0
-161 -252 0
-23 -252 0
-43 -232 0
-43 -161 0
-23 -43 0
-161 -232 0
-23 -232 0
-23 -161 0
-128 -168 0
-68 -168 0
-168 -257 0
-86 -168 0
-163 -168 0
-68 -128 0
-128 -257 0
-86 -128 0
-128 -163 0
-68 -257 0
-68 -86 0
-68 -163 0
-86 -257 0
-163 -257 0
-86 -163 0
-124 -264 0
-69 -264 0
-212 -264 0
-69 -124 0
-124 -212 0
-69 -212 0
-6 -77 0
-6 -63 0
-6 -142 0
-5 -6 0
-4 -6 0
-63 -77 0
-77 -142 0
-5 -77 0
-4 -77 0
-63 -142 0
-5 -63 0
-4 -63 0
-5 -142 0
-4 -142 0
-4 -5 0
-220 -228 0
-220 -240 0
-145 -220 0
-228 -240 0
-145 -228 0
-145 -240 0
-222 -226 0
-157 -222 0
-222 -244 0
-17 -222 0
-148 -222 0
-157 -226 0
-226 -244 0
-17 -226 0
-148 -226 0
-157 -244 0
-17 -157 0
-148 -157 0
-17 -244 0
-148 -244 0
-17 -148 0
-92 -147 0
-147 -256 0
-107 -147 0
-147 -152 0
-147 -153 0
-21 -147 0
-147 -258 0
-100 -147 0
-92 -256 0
-92 -107 0
-92 -152 0
-92 -153 0
-21 -92 0
-92 -258 0
-92 -100 0
-107 -256 0
-152 -256 0
-153 -256 0
-21 -256 0
-256 -258 0
-100 -256 0
-107 -152 0
-107 -153 0
-21 -107 0
-107 -258 0
-100 -107 0
-152 -153 0
-21 -152 0
-152 -258 0
-100 -152 0
-21 -153 0
-153 -258 0
-100 -153 0
-21 -258 0
-21 -100 0
-100 -258 0
-61 -201 0
-89 -194 0
-189 -194 0
-194 -260 0
-194 -261 0
-139 -194 0
-89 -189 0
-89 -260 0
-89 -261 0
-89 -139 0
-189 -260 0
-189 -261 0
-139 -189 0
-260 -261 0
-139 -260 0
-139 -261 0
-84 -196 0
-196 -266 0
-137 -196 0
-134 -196 0
-121 -196 0
-84 -266 0
-84 -137 0
-84 -134 0
-84 -121 0
-137 -266 0
-134 -266 0
-121 -266 0
-134 -137 0
-121 -137 0
-121 -134 0
-64 -246 0
-64 -187 0
-57 -64 0
-38 -64 0
-64 -122 0
-187 -246 0
-57 -246 0
-38 -246 0
-122 -246 0
-57 -187 0
-38 -187 0
-122 -187 0
-38 -57 0
-57 -122 0
-38 -122 0
-13 -164 0
-37 -164 0
-154 -164 0
-13 -37 0
-13 -154 0
-37 -154 0
-110 -191 0
-55 -267 0
-36 -267 0
-126 -267 0
-36 -55 0
-55 -126 0
-36 -126 0
-67 -75 0
-75 -112 0
-75 -85 0
-67 -112 0
-67 -85 0
-85 -112 0
-80 -103 0
-80 -170 0
-54 -80 0
-80 -203 0
-80 -140 0
-35 -80 0
-80 -98 0
-80 -81 0
-103 -170 0
-54 -103 0
-103 -203 0
-103 -140 0
-35 -103 0
-98 -103 0
-81 -103 0
-54 -170 0
-170 -203 0
-140 -170 0
-35 -170 0
-98 -170 0
-81 -170 0
-54 -203 0
-54 -140 0
-35 -54 0
-54 -98 0
-54 -81 0
-140 -203 0
-35 -203 0
-98 -203 0
-81 -203 0
-35 -140 0
-98 -140 0
-81 -140 0
-35 -98 0
-35 -81 0
-81 -98 0
-53 -253 0
-51 -53 0
-51 -253 0
-50 -173 0
-117 -175 0
-117 -156 0
-29 -117 0
-156 -175 0
-29 -175 0
-29 -156 0
-120 -132 0
-3 -132 0
-132 -159 0
-32 -132 0
-27 -132 0
-3 -120 0
-120 -159 0
-32 -120 0
-27 -120 0
-3 -159 0
-3 -32 0
-3 -27 0
-32 -159 0
-27 -159 0
-27 -32 0
-48 -108 0
-26 -48 0
-20 -48 0
-26 -108 0
-20 -108 0
-20 -26 0
-70 -177 0
-59 -177 0
-45 -177 0
-40 -177 0
-177 -248 0
-24 -177 0
-177 -237 0
-19 -177 0
-59 -70 0
-45 -70 0
-40 -70 0
-70 -248 0
-24 -70 0
-70 -237 0
-19 -70 0
-45 -59 0
-40 -59 0
-59 -248 0
-24 -59 0
-59 -237 0
-19 -59 0
-40 -45 0
-45 -248 0
-24 -45 0
-45 -237 0
-19 -45 0
-40 -248 0
-24 -40 0
-40 -237 0
-19 -40 0
-24 -248 0
-237 -248 0
-19 -248 0
-24 -237 0
-19 -24 0
-19 -237 0
-62 -78 0
-58 -78 0
-78 -162 0
-78 -259 0
-18 -78 0
-58 -62 0
-62 -162 0
-62 -259 0
-18 -62 0
-58 -162 0
-58 -259 0
-18 -58 0
-162 -259 0
-18 -162 0
-18 -259 0
-146 -262 0
-90 -262 0
-97 -262 0
-245 -262 0
-16 -262 0
-90 -146 0
-97 -146 0
-146 -245 0
-16 -146 0
-90 -97 0
-90 -245 0
-16 -90 0
-97 -245 0
-16 -97 0
-16 -245 0
-42 -101 0
-42 -268 0
-22 -42 0
-42 -269 0
-42 -73 0
-101 -268 0
-22 -101 0
-101 -269 0
-73 -101 0
-22 -268 0
-268 -269 0
-73 -268 0
-22 -269 0
-22 -73 0
-73 -269 0
-87 -114 0
-2 -114 0
-15 -114 0
-2 -87 0
-15 -87 0
-2 -15 0
-47 -66 0
-66 -249 0
-66 -184 0
-66 -217 0
-66 -105 0
-47 -249 0
-47 -184 0
-47 -217 0
-47 -105 0
-184 -249 0
-217 -249 0
-105 -249 0
-184 -217 0
-105 -184 0
-105 -217 0
-44 -138 0
-91 -138 0
-138 -185 0
-138 -207 0
-138 -241 0
-44 -91 0
-44 -185 0
-44 -207 0
-44 -241 0
-91 -185 0
-91 -207 0
-91 -241 0
-185 -207 0
-185 -241 0
-207 -241 0
-49 -65 0
-49 -263 0
-49 -186 0
-49 -218 0
-39 -49 0
-65 -263 0
-65 -186 0
-65 -218 0
-39 -65 0
-186 -263 0
-218 -263 0
-39 -263 0
-186 -218 0
-39 -186 0
-39 -218 0
-14 -109 0
-8 -14 0
-14 -188 0
-14 -219 0
-7 -14 0
-8 -109 0
-109 -188 0
-109 -219 0
-7 -109 0
-8 -188 0
-8 -219 0
-7 -8 0
-188 -219 0
-7 -188 0
-7 -219 0
-10 -12 0
-111 -135 0
-111 -131 0
-111 -190 0
-95 -111 0
-111 -198 0
-111 -221 0
-76 -111 0
-111 -229 0
-131 -135 0
-135 -190 0
-95 -135 0
-135 -198 0
-135 -221 0
-76 -135 0
-135 -229 0
-131 -190 0
-95 -131 0
-131 -198 0
-131 -221 0
-76 -131 0
-131 -229 0
-95 -190 0
-190 -198 0
-190 -221 0
-76 -190 0
-190 -229 0
-95 -198 0
-95 -221 0
-76 -95 0
-95 -229 0
-198 -221 0
-76 -198 0
-198 -229 0
-76 -221 0
-221 -229 0
-76 -229 0
-11 -254 0
-118 -254 0
-192 -254 0
-254 -255 0
-199 -254 0
-223 -254 0
-227 -254 0
-158 -254 0
-11 -118 0
-11 -192 0
-11 -255 0
-11 -199 0
-11 -223 0
-11 -227 0
-11 -158 0
-118 -192 0
-118 -255 0
-118 -199 0
-118 -223 0
-118 -227 0
-118 -158 0
-192 -255 0
-192 -199 0
-192 -223 0
-192 -227 0
-158 -192 0
-199 -255 0
-223 -255 0
-227 -255 0
-158 -255 0
-199 -223 0
-199 -227 0
-158 -199 0
-223 -227 0
-158 -223 0
-158 -227 0
-193 -200 0
-193 -224 0
-160 -193 0
-200 -224 0
-160 -200 0
-160 -224 0
-104 -247 0
-60 -247 0
-202 -247 0
-123 -247 0
-99 -247 0
-60 -104 0
-104 -202 0
-104 -123 0
-99 -104 0
-60 -202 0
-60 -123 0
-60 -99 0
-123 -202 0
-99 -202 0
-99 -123 0
-9 -136 0
-9 -195 0
-9 -88 0
-9 -225 0
-9 -151 0
-136 -195 0
-88 -136 0
-136 -225 0
-136 -151 0
-88 -195 0
-195 -225 0
-151 -195 0
-88 -225 0
-88 -151 0
-151 -225 0
-1 -116 0
-1 -165 0
-1 -197 0
-1 -83 0
-1 -265 0
-116 -165 0
-116 -197 0
-83 -116 0
-116 -265 0
-165 -197 0
-83 -165 0
-165 -265 0
-83 -197 0
-197 -265 0
-83 -265 0
-166 -172 0
-166 -180 0
-166 -204 0
-93 -166 0
-166 -213 0
-166 -230 0
-166 -251 0
-166 -234 0
-172 -180 0
-172 -204 0
-93 -172 0
-172 -213 0
-172 -230 0
-172 -251 0
-172 -234 0
-180 -204 0
-93 -180 0
-180 -213 0
-180 -230 0
-180 -251 0
-180 -234 0
-93 -204 0
-204 -213 0
-204 -230 0
-204 -251 0
-204 -234 0
-93 -213 0
-93 -230 0
-93 -251 0
-93 -234 0
-213 -230 0
-213 -251 0
-213 -234 0
-230 -251 0
-230 -234 0
-234 -251 0
-174 -206 0
-31 -174 0
-31 -206 0
-205 -209 0
-205 -214 0
-33 -205 0
-28 -205 0
-205 -235 0
-209 -214 0
-33 -209 0
-28 -209 0
-209 -235 0
-33 -214 0
-28 -214 0
-214 -235 0
-28 -33 0
-33 -235 0
-28 -235 0
-130 -167 0
-169 -176 0
-71 -169 0
-141 -169 0
-46 -169 0
-41 -169 0
-82 -169 0
-25 -169 0
-169 -236 0
-71 -176 0
-141 -176 0
-46 -176 0
-41 -176 0
-82 -176 0
-25 -176 0
-176 -236 0
-71 -141 0
-46 -71 0
-41 -71 0
-71 -82 0
-25 -71 0
-71 -236 0
-46 -141 0
-41 -141 0
-82 -141 0
-25 -141 0
-141 -236 0
-41 -46 0
-46 -82 0
-25 -46 0
-46 -236 0
-41 -82 0
-25 -41 0
-41 -236 0
-25 -82 0
-82 -236 0
-25 -236 0
-171 -179 0
-171 -182 0
-52 -171 0
-171 -210 0
-171 -215 0
-171 -233 0
-149 -171 0
-171 -239 0
-179 -182 0
-52 -179 0
-179 -210 0
-179 -215 0
-179 -233 0
-149 -179 0
-179 -239 0
-52 -182 0
-182 -210 0
-182 -215 0
-182 -233 0
-149 -182 0
-182 -239 0
-52 -210 0
-52 -215 0
-52 -233 0
-52 -149 0
-52 -239 0
-210 -215 0
-210 -233 0
-149 -210 0
-210 -239 0
-215 -233 0
-149 -215 0
-215 -239 0
-149 -233 0
-233 -239 0
-149 -239 0
-125 -183 0
-125 -211 0
-125 -216 0
-183 -211 0
-183 -216 0
-211 -216 0
